c description: Random 3-CNF over 15 variables and 64 clauses
c generator: CNFgen (0.9.2)
c copyright: (C) 2012-2022 Massimo Lauria <massimo.lauria@uniroma1.it>
c url: https://massimolauria.net/cnfgen
c command line: cnfgen --output CNF_4.28/15_bit_64_350.cnf randkcnf 3 15 64
c
p cnf 15 64
7 8 15 0
-4 7 13 0
3 -6 15 0
4 7 14 0
3 11 -13 0
1 6 -14 0
4 -9 12 0
3 -6 11 0
-5 9 12 0
1 8 14 0
-2 3 -10 0
-2 3 7 0
-7 -10 14 0
7 -12 13 0
-6 10 14 0
5 -10 14 0
-4 -5 -12 0
1 -9 10 0
2 -10 14 0
7 -9 13 0
-5 -7 -12 0
-2 -9 13 0
4 -9 13 0
3 -7 10 0
-8 -9 -15 0
5 -7 10 0
-2 6 -11 0
2 -4 -5 0
-3 -8 9 0
2 4 7 0
-1 10 13 0
-1 -11 -15 0
1 4 12 0
3 -13 -14 0
9 -11 15 0
7 -13 -14 0
6 10 -11 0
-6 -7 11 0
2 5 10 0
5 -6 15 0
7 -8 10 0
-3 6 -8 0
12 14 15 0
-6 7 15 0
-2 5 -6 0
-7 -13 -14 0
-2 7 -15 0
7 9 -10 0
-3 5 -14 0
11 13 15 0
8 9 -15 0
-2 3 14 0
-2 -5 13 0
7 -13 15 0
2 -9 10 0
2 4 13 0
1 -8 -12 0
3 4 9 0
-4 -5 -8 0
-7 -12 -14 0
-8 13 -15 0
-8 13 -14 0
5 -10 -14 0
-2 -9 -15 0
